Route #1: 12 103
Route #2: 39 8
Route #3: 113 33 5
Route #4: 69 53
Route #5: 98 45
Route #6: 29 104 71 119
Route #7: 58 80 41 67 107 4
Route #8: 25 118 68 47 94 109 36 79 55
Route #9: 108 62 85 30 117 27
Route #10: 46 1 63 22 40 65 7
Route #11: 95 121 54 64 101 77 48
Route #12: 20 72 32
Route #13: 75 37
Route #14: 35
Route #15: 120 57
Route #16: 100 18
Route #17: 91 122
Route #18: 73 99
Route #19: 110 21
Route #20: 83 61
Route #21: 106 43 16 81 42
Route #22: 92 15 78 28 50
Route #23: 124 2 34 6 70 115 89
Route #24: 51 105 88 59 19
Route #25: 11 114 87 9 116 17 66
Route #26: 97 74 13 49 23 82
Route #27: 56 24 123 44
Route #28: 102 14 52 90
Route #29: 60 31
Route #30: 96 86
Route #31: 93 3
Route #32: 38 76
Route #33: 111
Route #34: 26 84 112
Route #35: 10
Cost 60601
